Li2S6                                   
   1.00000000000000     
    20.0000000000000000    0.0000000000000000    0.0000000000000000
     0.0000000000000000   20.0000000000000000    0.0000000000000000
     0.0000000000000000    0.0000000000000000   20.0000000000000000
   Li S
     2 6 
Direct
  0.5064535403517738  0.4335819953849802  0.5646837833307777
  0.4877850169590956  0.4439464900152863  0.4327585250252077
  0.3983591387326582  0.5246632650461870  0.4682190688017516
  0.4532423121901950  0.5901188875724546  0.5259623739280084
  0.5530318316927224  0.5884842441831803  0.4933733159719663
  0.6022901546998163  0.5112838249749913  0.5407140428833144
  0.5922875989593960  0.4231438803103043  0.4867272025303324
  0.4009766429643404  0.4291198143126155  0.5088860398786488
 
  0.00000000E+00  0.00000000E+00  0.00000000E+00
  0.00000000E+00  0.00000000E+00  0.00000000E+00
  0.00000000E+00  0.00000000E+00  0.00000000E+00
  0.00000000E+00  0.00000000E+00  0.00000000E+00
  0.00000000E+00  0.00000000E+00  0.00000000E+00
  0.00000000E+00  0.00000000E+00  0.00000000E+00
  0.00000000E+00  0.00000000E+00  0.00000000E+00
  0.00000000E+00  0.00000000E+00  0.00000000E+00
