Na2S2                                   
   1.00000000000000     
    20.0000000000000000    0.0000000000000000    0.0000000000000000
     0.0000000000000000   20.0000000000000000    0.0000000000000000
     0.0000000000000000    0.0000000000000000   20.0000000000000000
   Na    S
     2     2
Direct
  0.5033279502619001  0.3953848954776135  0.4853185246530070
  0.4973033910876844  0.6045031679095513  0.4722132036467658
  0.4446366400179220  0.5012836749680107  0.5259552344053419
  0.5552449147824925  0.5045278231448262  0.5266237138948855
 
  0.00000000E+00  0.00000000E+00  0.00000000E+00
  0.00000000E+00  0.00000000E+00  0.00000000E+00
  0.00000000E+00  0.00000000E+00  0.00000000E+00
  0.00000000E+00  0.00000000E+00  0.00000000E+00
