Na2S4                                   
   1.00000000000000     
    20.0000000000000000    0.0000000000000000    0.0000000000000000
     0.0000000000000000   20.0000000000000000    0.0000000000000000
     0.0000000000000000    0.0000000000000000   20.0000000000000000
   Na    S
     2     4
Direct
  0.4822349764815090  0.4349933877122354  0.4150026870163122
  0.5163567629607959  0.4572696706324752  0.5871283574341348
  0.4531742645241296  0.5565620315166362  0.4700652716224795
  0.5530821886690476  0.5574743700464080  0.5018458666017526
  0.5970926472809965  0.4655182361748764  0.4785394149342905
  0.4032646102835160  0.4773899509673640  0.5167255828910338
 
  0.00000000E+00  0.00000000E+00  0.00000000E+00
  0.00000000E+00  0.00000000E+00  0.00000000E+00
  0.00000000E+00  0.00000000E+00  0.00000000E+00
  0.00000000E+00  0.00000000E+00  0.00000000E+00
  0.00000000E+00  0.00000000E+00  0.00000000E+00
  0.00000000E+00  0.00000000E+00  0.00000000E+00
