Li2S2                                   
   1.00000000000000     
    20.0000000000000000    0.0000000000000000    0.0000000000000000
     0.0000000000000000   20.0000000000000000    0.0000000000000000
     0.0000000000000000    0.0000000000000000   20.0000000000000000
  Li  S 
     2     2
Direct
  0.5026083007501235  0.4178765578387146  0.4826172785739207
  0.4978448025271570  0.5818900722583082  0.4724476528200633
  0.4454165260653492  0.5013689619518517  0.5273878776951318
  0.5546432668073695  0.5045639694511276  0.5276578675108844
 
  0.00000000E+00  0.00000000E+00  0.00000000E+00
  0.00000000E+00  0.00000000E+00  0.00000000E+00
  0.00000000E+00  0.00000000E+00  0.00000000E+00
  0.00000000E+00  0.00000000E+00  0.00000000E+00
