Na2S                                   
   1.00000000000000     
    20.0000000000000000    0.0000000000000000    0.0000000000000000
     0.0000000000000000   20.0000000000000000    0.0000000000000000
     0.0000000000000000    0.0000000000000000   20.0000000000000000
   Na  S
     2    1
Direct
  0.4271520637647685  0.4680279515169891  0.4271520690147698
  0.5728479362352316  0.4680279515169891  0.5728479309852302
  0.4999997299999990  0.5333599180160210  0.4999997377500023
 
  0.00000000E+00  0.00000000E+00  0.00000000E+00
  0.00000000E+00  0.00000000E+00  0.00000000E+00
  0.00000000E+00  0.00000000E+00  0.00000000E+00
