 S
   1.00000000000000
    20.0000000000000000    0.0000000000000000    0.0000000000000000
     0.0000000000000000   20.0000000000000000    0.0000000000000000
     0.0000000000000000    0.0000000000000000   20.0000000000000000
   S
     8
Direct
  0.5097710689047417  0.5506054716918362  0.6102615119096684
  0.4525975742128152  0.4798024450919657  0.3901564757306193
  0.4902289310952586  0.4493945283081638  0.6102615119096684
  0.5877502727470870  0.5702265935245835  0.5457129772006466
  0.4122497272529130  0.4297734064754167  0.5457129772006466
  0.5501328755347591  0.6006124554037594  0.4546403441590667
  0.4498671244652410  0.3993875445962405  0.4546403441590667
  0.5474024257871849  0.5201975549080342  0.3901564757306193

