Li2S                                   
   1.00000000000000     
    20.0000000000000000    0.0000000000000000    0.0000000000000000
     0.0000000000000000   20.0000000000000000    0.0000000000000000
     0.0000000000000000    0.0000000000000000   20.0000000000000000
   Li    S
     2     1
Direct
  0.4353939985086483  0.4731144585338528  0.4353940037586496
  0.5646060014913518  0.4731144585338528  0.5646059962413504
  0.4999997299999990  0.5231869039822937  0.4999997377500023
 
  0.00000000E+00  0.00000000E+00  0.00000000E+00
  0.00000000E+00  0.00000000E+00  0.00000000E+00
  0.00000000E+00  0.00000000E+00  0.00000000E+00
