Li2S8                                   
   1.00000000000000     
    20.0000000000000000    0.0000000000000000    0.0000000000000000
     0.0000000000000000   20.0000000000000000    0.0000000000000000
     0.0000000000000000    0.0000000000000000   20.0000000000000000
  Li  S 
    2   8
Direct
  0.4816116571927098  0.4146095649498671  0.5629486417569713
  0.4780653419574342  0.4193064621021605  0.4339925805481075
  0.3979471633793927  0.5852392147779855  0.5451714621411805
  0.4955191505633680  0.6168302366526834  0.5512778210892775
  0.5413332231385689  0.6108106926715015  0.4575499361565117
  0.6196854770246061  0.5444319554040156  0.4604943914012387
  0.5938240637331696  0.4517331168404059  0.4212451830032982
  0.5722042776977727  0.3813637778337960  0.4938322807994563
  0.3808284349688822  0.4185146975594559  0.5019449757681673
  0.3864009224440964  0.4875406392081225  0.5786982474857982
 
  0.00000000E+00  0.00000000E+00  0.00000000E+00
  0.00000000E+00  0.00000000E+00  0.00000000E+00
  0.00000000E+00  0.00000000E+00  0.00000000E+00
  0.00000000E+00  0.00000000E+00  0.00000000E+00
  0.00000000E+00  0.00000000E+00  0.00000000E+00
  0.00000000E+00  0.00000000E+00  0.00000000E+00
  0.00000000E+00  0.00000000E+00  0.00000000E+00
  0.00000000E+00  0.00000000E+00  0.00000000E+00
  0.00000000E+00  0.00000000E+00  0.00000000E+00
  0.00000000E+00  0.00000000E+00  0.00000000E+00
