Na2S8                                   
   1.00000000000000     
    20.0000000000000000    0.0000000000000000    0.0000000000000000
     0.0000000000000000   20.0000000000000000    0.0000000000000000
     0.0000000000000000    0.0000000000000000   20.0000000000000000
   Na  S
     2  8
Direct
  0.5303292934719982  0.4329293629374611  0.5682563971430605
  0.4402028317221944  0.4541800944604245  0.4305159185298952
  0.3863172724151372  0.5683471817780560  0.5067542188107220
  0.4801376738487353  0.6124249802029086  0.5387790444982565
  0.5527409580937749  0.6002025213627654  0.4687018825804720
  0.6233164329495241  0.5230450256178196  0.4976446221853578
  0.6261255413954295  0.4514164141287779  0.4255127794826163
  0.5537783344970184  0.3809391375512254  0.4415518673000571
  0.3978383783711871  0.4078075178130158  0.5543914686120773
  0.3566329953350017  0.4990881221475402  0.5750473210074926
 
  0.00000000E+00  0.00000000E+00  0.00000000E+00
  0.00000000E+00  0.00000000E+00  0.00000000E+00
  0.00000000E+00  0.00000000E+00  0.00000000E+00
  0.00000000E+00  0.00000000E+00  0.00000000E+00
  0.00000000E+00  0.00000000E+00  0.00000000E+00
  0.00000000E+00  0.00000000E+00  0.00000000E+00
  0.00000000E+00  0.00000000E+00  0.00000000E+00
  0.00000000E+00  0.00000000E+00  0.00000000E+00
  0.00000000E+00  0.00000000E+00  0.00000000E+00
  0.00000000E+00  0.00000000E+00  0.00000000E+00
