Li2S4                                   
   1.00000000000000     
    20.0000000000000000    0.0000000000000000    0.0000000000000000
     0.0000000000000000   20.0000000000000000    0.0000000000000000
     0.0000000000000000    0.0000000000000000   20.0000000000000000
  Li  S 
   2   4 
Direct
  0.4842324034470521  0.4442325050376503  0.4319372746501849
  0.5148023850878223  0.4616810174230072  0.5683085639789913
  0.4533288478145706  0.5539897017304964  0.4687009007569064
  0.5528094944249075  0.5552753959516874  0.5039878850659000
  0.5915681103246040  0.4613835391483164  0.4802804774106428
  0.4084642091010379  0.4726454877588376  0.5160920786373772
 
  0.00000000E+00  0.00000000E+00  0.00000000E+00
  0.00000000E+00  0.00000000E+00  0.00000000E+00
  0.00000000E+00  0.00000000E+00  0.00000000E+00
  0.00000000E+00  0.00000000E+00  0.00000000E+00
  0.00000000E+00  0.00000000E+00  0.00000000E+00
  0.00000000E+00  0.00000000E+00  0.00000000E+00
