Na2S6                                   
   1.00000000000000     
    20.0000000000000000    0.0000000000000000    0.0000000000000000
     0.0000000000000000   20.0000000000000000    0.0000000000000000
     0.0000000000000000    0.0000000000000000   20.0000000000000000
  Na  S 
    2  6 
Direct
  0.4936855394331719  0.4412123490287362  0.5836541363255960
  0.5014355967978125  0.4530735842502197  0.4150675590654256
  0.3839047968473435  0.5291813168428614  0.4822787465459553
  0.4551710162551317  0.5783822115989694  0.5368016738473627
  0.5497985304009907  0.5790033294498658  0.4808504363441694
  0.6170001021190363  0.5174657791810590  0.5274131445657265
  0.6005654335892319  0.4189238277782766  0.5023510818230509
  0.3928652211072797  0.4271000036700126  0.4929075738327212
 
  0.00000000E+00  0.00000000E+00  0.00000000E+00
  0.00000000E+00  0.00000000E+00  0.00000000E+00
  0.00000000E+00  0.00000000E+00  0.00000000E+00
  0.00000000E+00  0.00000000E+00  0.00000000E+00
  0.00000000E+00  0.00000000E+00  0.00000000E+00
  0.00000000E+00  0.00000000E+00  0.00000000E+00
  0.00000000E+00  0.00000000E+00  0.00000000E+00
  0.00000000E+00  0.00000000E+00  0.00000000E+00
